# Solution for model JobShopModel
# Objective value = 11769
y[0,0,3] 1
y[0,0,4] 0
y[0,0,6] 0
y[0,1,1] 1
y[0,1,3] 0
y[0,1,6] 0
y[0,2,0] 1
y[0,2,1] 0
y[0,2,2] 0
y[1,0,4] 0
y[1,0,5] 1
y[1,0,6] 0
y[1,1,1] 1
y[1,1,2] 0
y[1,2,0] 0
y[1,2,2] 1
y[2,0,3] 0
y[2,0,4] 1
y[2,0,5] 0
y[2,1,2] 0
y[2,1,3] 0
y[2,1,6] 1
y[2,2,0] 1
y[2,2,1] 0
y[3,0,3] 0
y[3,0,5] 1
y[3,1,2] 1
y[3,1,4] 0
y[3,2,0] 1
y[3,2,1] 0
y[4,0,1] 0
y[4,0,4] 1
y[4,0,5] 0
y[4,1,3] 0
y[4,1,4] 0
y[4,1,6] 1
y[4,2,0] 0
y[4,2,1] 0
y[4,2,2] 1
y[5,0,4] 0
y[5,0,5] 0
y[5,0,6] 1
y[5,1,2] 0
y[5,1,3] 1
y[5,1,4] 0
y[5,2,1] 0
y[5,2,2] 1
y[5,2,3] 0
y[6,0,4] 0
y[6,0,5] 1
y[6,0,6] 0
y[6,1,2] 0
y[6,1,4] 1
y[6,2,1] 1
y[6,2,2] 0
y[7,0,4] 0
y[7,0,5] 1
y[7,0,6] 0
y[7,1,4] 1
y[7,1,5] 0
y[7,2,2] 0
y[7,2,3] 1
x[0,0,0,0] 0
x[0,0,0,1] 1
x[0,0,0,2] 0
x[0,0,1,0] 0
x[0,0,1,1] 0
x[0,0,1,2] 0
x[0,0,2,0] 0
x[0,0,2,1] 1
x[0,0,2,2] 0
x[0,0,3,0] 0
x[0,0,3,1] 0
x[0,0,3,2] 0
x[0,0,4,0] 0
x[0,0,4,1] 0
x[0,0,4,2] 0
x[0,0,5,0] 0
x[0,0,5,1] 1
x[0,0,5,2] 1
x[0,0,6,0] 0
x[0,0,6,1] 1
x[0,0,6,2] 0
x[0,0,7,0] 1
x[0,0,7,1] 0
x[0,0,7,2] 1
x[0,1,0,0] 0
x[0,1,0,1] 0
x[0,1,0,2] 0
x[0,1,1,0] 0
x[0,1,1,1] 1
x[0,1,1,2] 0
x[0,1,2,0] 0
x[0,1,2,1] 0
x[0,1,2,2] 1
x[0,1,3,0] 0
x[0,1,3,1] 0
x[0,1,3,2] 0
x[0,1,4,0] 0
x[0,1,4,1] 0
x[0,1,4,2] 0
x[0,1,5,0] 0
x[0,1,5,1] 0
x[0,1,5,2] 0
x[0,1,6,0] 0
x[0,1,6,1] 0
x[0,1,6,2] 1
x[0,1,7,0] 1
x[0,1,7,1] 0
x[0,1,7,2] 0
x[0,2,0,0] 0
x[0,2,0,1] 1
x[0,2,0,2] 0
x[0,2,1,0] 0
x[0,2,1,1] 1
x[0,2,1,2] 0
x[0,2,2,0] 0
x[0,2,2,1] 0
x[0,2,2,2] 1
x[0,2,3,0] 0
x[0,2,3,1] 0
x[0,2,3,2] 0
x[0,2,4,0] 0
x[0,2,4,1] 0
x[0,2,4,2] 0
x[0,2,5,0] 0
x[0,2,5,1] 1
x[0,2,5,2] 0
x[0,2,6,0] 0
x[0,2,6,1] 0
x[0,2,6,2] 0
x[0,2,7,0] 0
x[0,2,7,1] 0
x[0,2,7,2] 0
x[1,0,0,0] 0
x[1,0,0,1] 0
x[1,0,0,2] 0
x[1,0,1,0] 0
x[1,0,1,1] 0
x[1,0,1,2] 0
x[1,0,2,0] 0
x[1,0,2,1] 0
x[1,0,2,2] 0
x[1,0,3,0] 0
x[1,0,3,1] 0
x[1,0,3,2] 0
x[1,0,4,0] 0
x[1,0,4,1] 0
x[1,0,4,2] 0
x[1,0,5,0] 0
x[1,0,5,1] 0
x[1,0,5,2] 0
x[1,0,6,0] 0
x[1,0,6,1] 0
x[1,0,6,2] 0
x[1,0,7,0] 0
x[1,0,7,1] 0
x[1,0,7,2] 0
x[1,1,0,0] 0
x[1,1,0,1] 0
x[1,1,0,2] 0
x[1,1,1,0] 0
x[1,1,1,1] 0
x[1,1,1,2] 0
x[1,1,2,0] 0
x[1,1,2,1] 0
x[1,1,2,2] 0
x[1,1,3,0] 0
x[1,1,3,1] 0
x[1,1,3,2] 0
x[1,1,4,0] 0
x[1,1,4,1] 0
x[1,1,4,2] 0
x[1,1,5,0] 0
x[1,1,5,1] 0
x[1,1,5,2] 0
x[1,1,6,0] 0
x[1,1,6,1] 0
x[1,1,6,2] 0
x[1,1,7,0] 0
x[1,1,7,1] 0
x[1,1,7,2] 0
x[1,2,0,0] 0
x[1,2,0,1] 0
x[1,2,0,2] 0
x[1,2,1,0] 0
x[1,2,1,1] 1
x[1,2,1,2] 0
x[1,2,2,0] 0
x[1,2,2,1] 0
x[1,2,2,2] 0
x[1,2,3,0] 0
x[1,2,3,1] 0
x[1,2,3,2] 0
x[1,2,4,0] 0
x[1,2,4,1] 0
x[1,2,4,2] 0
x[1,2,5,0] 0
x[1,2,5,1] 0
x[1,2,5,2] 0
x[1,2,6,0] 0
x[1,2,6,1] 0
x[1,2,6,2] 0
x[1,2,7,0] 0
x[1,2,7,1] 0
x[1,2,7,2] 0
x[2,0,0,0] 0
x[2,0,0,1] 0
x[2,0,0,2] 0
x[2,0,1,0] 0
x[2,0,1,1] 0
x[2,0,1,2] 0
x[2,0,2,0] 0
x[2,0,2,1] 0
x[2,0,2,2] 0
x[2,0,3,0] 0
x[2,0,3,1] 0
x[2,0,3,2] 0
x[2,0,4,0] 0
x[2,0,4,1] 0
x[2,0,4,2] 0
x[2,0,5,0] 1
x[2,0,5,1] 0
x[2,0,5,2] 0
x[2,0,6,0] 0
x[2,0,6,1] 0
x[2,0,6,2] 0
x[2,0,7,0] 0
x[2,0,7,1] 0
x[2,0,7,2] 0
x[2,1,0,0] 0
x[2,1,0,1] 0
x[2,1,0,2] 0
x[2,1,1,0] 0
x[2,1,1,1] 0
x[2,1,1,2] 0
x[2,1,2,0] 1
x[2,1,2,1] 0
x[2,1,2,2] 0
x[2,1,3,0] 0
x[2,1,3,1] 0
x[2,1,3,2] 0
x[2,1,4,0] 0
x[2,1,4,1] 0
x[2,1,4,2] 0
x[2,1,5,0] 0
x[2,1,5,1] 0
x[2,1,5,2] 0
x[2,1,6,0] 0
x[2,1,6,1] 0
x[2,1,6,2] 0
x[2,1,7,0] 0
x[2,1,7,1] 0
x[2,1,7,2] 0
x[2,2,0,0] 0
x[2,2,0,1] 0
x[2,2,0,2] 0
x[2,2,1,0] 0
x[2,2,1,1] 0
x[2,2,1,2] 0
x[2,2,2,0] 0
x[2,2,2,1] 0
x[2,2,2,2] 0
x[2,2,3,0] 0
x[2,2,3,1] 0
x[2,2,3,2] 0
x[2,2,4,0] 0
x[2,2,4,1] 0
x[2,2,4,2] 0
x[2,2,5,0] 0
x[2,2,5,1] 0
x[2,2,5,2] 0
x[2,2,6,0] 0
x[2,2,6,1] 0
x[2,2,6,2] 0
x[2,2,7,0] 0
x[2,2,7,1] 0
x[2,2,7,2] 0
x[3,0,0,0] 0
x[3,0,0,1] 0
x[3,0,0,2] 0
x[3,0,1,0] 0
x[3,0,1,1] 0
x[3,0,1,2] 0
x[3,0,2,0] 0
x[3,0,2,1] 0
x[3,0,2,2] 0
x[3,0,3,0] 0
x[3,0,3,1] 0
x[3,0,3,2] 0
x[3,0,4,0] 1
x[3,0,4,1] 0
x[3,0,4,2] 0
x[3,0,5,0] 0
x[3,0,5,1] 0
x[3,0,5,2] 0
x[3,0,6,0] 1
x[3,0,6,1] 0
x[3,0,6,2] 0
x[3,0,7,0] 1
x[3,0,7,1] 0
x[3,0,7,2] 0
x[3,1,0,0] 0
x[3,1,0,1] 0
x[3,1,0,2] 0
x[3,1,1,0] 0
x[3,1,1,1] 0
x[3,1,1,2] 0
x[3,1,2,0] 0
x[3,1,2,1] 0
x[3,1,2,2] 0
x[3,1,3,0] 0
x[3,1,3,1] 0
x[3,1,3,2] 0
x[3,1,4,0] 0
x[3,1,4,1] 0
x[3,1,4,2] 1
x[3,1,5,0] 0
x[3,1,5,1] 0
x[3,1,5,2] 1
x[3,1,6,0] 0
x[3,1,6,1] 0
x[3,1,6,2] 0
x[3,1,7,0] 0
x[3,1,7,1] 0
x[3,1,7,2] 0
x[3,2,0,0] 0
x[3,2,0,1] 0
x[3,2,0,2] 0
x[3,2,1,0] 0
x[3,2,1,1] 0
x[3,2,1,2] 0
x[3,2,2,0] 0
x[3,2,2,1] 0
x[3,2,2,2] 0
x[3,2,3,0] 0
x[3,2,3,1] 0
x[3,2,3,2] 0
x[3,2,4,0] 0
x[3,2,4,1] 0
x[3,2,4,2] 0
x[3,2,5,0] 0
x[3,2,5,1] 0
x[3,2,5,2] 0
x[3,2,6,0] 0
x[3,2,6,1] 0
x[3,2,6,2] 0
x[3,2,7,0] 0
x[3,2,7,1] 0
x[3,2,7,2] 0
x[4,0,0,0] 0
x[4,0,0,1] 0
x[4,0,0,2] 0
x[4,0,1,0] 0
x[4,0,1,1] 0
x[4,0,1,2] 0
x[4,0,2,0] 0
x[4,0,2,1] 0
x[4,0,2,2] 0
x[4,0,3,0] 0
x[4,0,3,1] 0
x[4,0,3,2] 0
x[4,0,4,0] 0
x[4,0,4,1] 0
x[4,0,4,2] 0
x[4,0,5,0] 0
x[4,0,5,1] 0
x[4,0,5,2] 0
x[4,0,6,0] 1
x[4,0,6,1] 1
x[4,0,6,2] 1
x[4,0,7,0] 1
x[4,0,7,1] 1
x[4,0,7,2] 0
x[4,1,0,0] 0
x[4,1,0,1] 0
x[4,1,0,2] 0
x[4,1,1,0] 0
x[4,1,1,1] 0
x[4,1,1,2] 0
x[4,1,2,0] 0
x[4,1,2,1] 0
x[4,1,2,2] 0
x[4,1,3,0] 0
x[4,1,3,1] 0
x[4,1,3,2] 0
x[4,1,4,0] 1
x[4,1,4,1] 0
x[4,1,4,2] 0
x[4,1,5,0] 1
x[4,1,5,1] 0
x[4,1,5,2] 0
x[4,1,6,0] 0
x[4,1,6,1] 0
x[4,1,6,2] 0
x[4,1,7,0] 0
x[4,1,7,1] 0
x[4,1,7,2] 0
x[4,2,0,0] 0
x[4,2,0,1] 0
x[4,2,0,2] 0
x[4,2,1,0] 0
x[4,2,1,1] 0
x[4,2,1,2] 0
x[4,2,2,0] 0
x[4,2,2,1] 0
x[4,2,2,2] 0
x[4,2,3,0] 0
x[4,2,3,1] 0
x[4,2,3,2] 0
x[4,2,4,0] 1
x[4,2,4,1] 0
x[4,2,4,2] 0
x[4,2,5,0] 0
x[4,2,5,1] 0
x[4,2,5,2] 1
x[4,2,6,0] 0
x[4,2,6,1] 0
x[4,2,6,2] 0
x[4,2,7,0] 0
x[4,2,7,1] 0
x[4,2,7,2] 0
x[5,0,0,0] 0
x[5,0,0,1] 0
x[5,0,0,2] 0
x[5,0,1,0] 0
x[5,0,1,1] 0
x[5,0,1,2] 0
x[5,0,2,0] 0
x[5,0,2,1] 0
x[5,0,2,2] 0
x[5,0,3,0] 0
x[5,0,3,1] 0
x[5,0,3,2] 0
x[5,0,4,0] 0
x[5,0,4,1] 0
x[5,0,4,2] 0
x[5,0,5,0] 0
x[5,0,5,1] 0
x[5,0,5,2] 0
x[5,0,6,0] 0
x[5,0,6,1] 0
x[5,0,6,2] 0
x[5,0,7,0] 0
x[5,0,7,1] 0
x[5,0,7,2] 0
x[5,1,0,0] 0
x[5,1,0,1] 0
x[5,1,0,2] 0
x[5,1,1,0] 0
x[5,1,1,1] 0
x[5,1,1,2] 0
x[5,1,2,0] 0
x[5,1,2,1] 0
x[5,1,2,2] 0
x[5,1,3,0] 0
x[5,1,3,1] 0
x[5,1,3,2] 0
x[5,1,4,0] 0
x[5,1,4,1] 0
x[5,1,4,2] 0
x[5,1,5,0] 1
x[5,1,5,1] 0
x[5,1,5,2] 0
x[5,1,6,0] 0
x[5,1,6,1] 0
x[5,1,6,2] 0
x[5,1,7,0] 0
x[5,1,7,1] 0
x[5,1,7,2] 1
x[5,2,0,0] 0
x[5,2,0,1] 0
x[5,2,0,2] 0
x[5,2,1,0] 0
x[5,2,1,1] 0
x[5,2,1,2] 0
x[5,2,2,0] 0
x[5,2,2,1] 0
x[5,2,2,2] 0
x[5,2,3,0] 0
x[5,2,3,1] 0
x[5,2,3,2] 0
x[5,2,4,0] 0
x[5,2,4,1] 0
x[5,2,4,2] 0
x[5,2,5,0] 0
x[5,2,5,1] 1
x[5,2,5,2] 0
x[5,2,6,0] 0
x[5,2,6,1] 0
x[5,2,6,2] 0
x[5,2,7,0] 0
x[5,2,7,1] 0
x[5,2,7,2] 0
x[6,0,0,0] 0
x[6,0,0,1] 0
x[6,0,0,2] 0
x[6,0,1,0] 0
x[6,0,1,1] 0
x[6,0,1,2] 0
x[6,0,2,0] 0
x[6,0,2,1] 0
x[6,0,2,2] 0
x[6,0,3,0] 0
x[6,0,3,1] 0
x[6,0,3,2] 0
x[6,0,4,0] 0
x[6,0,4,1] 0
x[6,0,4,2] 0
x[6,0,5,0] 0
x[6,0,5,1] 0
x[6,0,5,2] 0
x[6,0,6,0] 0
x[6,0,6,1] 0
x[6,0,6,2] 0
x[6,0,7,0] 1
x[6,0,7,1] 0
x[6,0,7,2] 0
x[6,1,0,0] 0
x[6,1,0,1] 0
x[6,1,0,2] 0
x[6,1,1,0] 0
x[6,1,1,1] 0
x[6,1,1,2] 0
x[6,1,2,0] 0
x[6,1,2,1] 0
x[6,1,2,2] 0
x[6,1,3,0] 0
x[6,1,3,1] 0
x[6,1,3,2] 0
x[6,1,4,0] 0
x[6,1,4,1] 0
x[6,1,4,2] 0
x[6,1,5,0] 0
x[6,1,5,1] 0
x[6,1,5,2] 0
x[6,1,6,0] 1
x[6,1,6,1] 0
x[6,1,6,2] 0
x[6,1,7,0] 0
x[6,1,7,1] 1
x[6,1,7,2] 0
x[6,2,0,0] 0
x[6,2,0,1] 0
x[6,2,0,2] 0
x[6,2,1,0] 0
x[6,2,1,1] 0
x[6,2,1,2] 0
x[6,2,2,0] 0
x[6,2,2,1] 0
x[6,2,2,2] 0
x[6,2,3,0] 0
x[6,2,3,1] 0
x[6,2,3,2] 0
x[6,2,4,0] 0
x[6,2,4,1] 0
x[6,2,4,2] 0
x[6,2,5,0] 0
x[6,2,5,1] 0
x[6,2,5,2] 0
x[6,2,6,0] 0
x[6,2,6,1] 1
x[6,2,6,2] 0
x[6,2,7,0] 0
x[6,2,7,1] 0
x[6,2,7,2] 1
x[7,0,0,0] 0
x[7,0,0,1] 0
x[7,0,0,2] 0
x[7,0,1,0] 0
x[7,0,1,1] 0
x[7,0,1,2] 0
x[7,0,2,0] 0
x[7,0,2,1] 0
x[7,0,2,2] 0
x[7,0,3,0] 0
x[7,0,3,1] 0
x[7,0,3,2] 0
x[7,0,4,0] 0
x[7,0,4,1] 0
x[7,0,4,2] 0
x[7,0,5,0] 0
x[7,0,5,1] 0
x[7,0,5,2] 0
x[7,0,6,0] 0
x[7,0,6,1] 0
x[7,0,6,2] 0
x[7,0,7,0] 0
x[7,0,7,1] 0
x[7,0,7,2] 0
x[7,1,0,0] 0
x[7,1,0,1] 0
x[7,1,0,2] 0
x[7,1,1,0] 0
x[7,1,1,1] 0
x[7,1,1,2] 0
x[7,1,2,0] 0
x[7,1,2,1] 0
x[7,1,2,2] 0
x[7,1,3,0] 0
x[7,1,3,1] 0
x[7,1,3,2] 0
x[7,1,4,0] 0
x[7,1,4,1] 0
x[7,1,4,2] 0
x[7,1,5,0] 0
x[7,1,5,1] 0
x[7,1,5,2] 0
x[7,1,6,0] 0
x[7,1,6,1] 0
x[7,1,6,2] 0
x[7,1,7,0] 1
x[7,1,7,1] 0
x[7,1,7,2] 0
x[7,2,0,0] 0
x[7,2,0,1] 0
x[7,2,0,2] 0
x[7,2,1,0] 0
x[7,2,1,1] 0
x[7,2,1,2] 0
x[7,2,2,0] 0
x[7,2,2,1] 0
x[7,2,2,2] 0
x[7,2,3,0] 0
x[7,2,3,1] 0
x[7,2,3,2] 0
x[7,2,4,0] 0
x[7,2,4,1] 0
x[7,2,4,2] 0
x[7,2,5,0] 0
x[7,2,5,1] 0
x[7,2,5,2] 0
x[7,2,6,0] 0
x[7,2,6,1] 0
x[7,2,6,2] 0
x[7,2,7,0] 0
x[7,2,7,1] 0
x[7,2,7,2] 0
s[0,0,3] 1.4909999999999977e+03
s[0,0,4] 0
s[0,0,6] 0
s[0,1,1] 1361
s[0,1,3] 0
s[0,1,6] 0
s[0,2,0] 1.0109999999999941e+03
s[0,2,1] 0
s[0,2,2] 0
s[1,0,4] 0
s[1,0,5] 6.9599999999999727e+02
s[1,0,6] 0
s[1,1,1] 630
s[1,1,2] 0
s[1,2,0] 0
s[1,2,2] 480
s[2,0,3] 0
s[2,0,4] 7.1199999999998226e+02
s[2,0,5] 0
s[2,1,2] 0
s[2,1,3] 0
s[2,1,6] 5.6699999999999818e+02
s[2,2,0] 480
s[2,2,1] 0
s[3,0,3] 0
s[3,0,5] 2.1429999999999368e+03
s[3,1,2] 1.8929999999999914e+03
s[3,1,4] 0
s[3,2,0] 1.8059999999999927e+03
s[3,2,1] 0
s[4,0,1] 0
s[4,0,4] 1.7069999999999563e+03
s[4,0,5] 0
s[4,1,3] 0
s[4,1,4] 0
s[4,1,6] 1.5219999999998349e+03
s[4,2,0] 0
s[4,2,1] 0
s[4,2,2] 1.2789999999999654e+03
s[5,0,4] 0
s[5,0,5] 0
s[5,0,6] 1.2149999999998547e+03
s[5,1,2] 0
s[5,1,3] 1.0649999999999848e+03
s[5,1,4] 0
s[5,2,1] 0
s[5,2,2] 7.4499999999998863e+02
s[5,2,3] 0
s[6,0,4] 0
s[6,0,5] 1.5499999999999682e+03
s[6,0,6] 0
s[6,1,2] 0
s[6,1,4] 1.3289999999999718e+03
s[6,2,1] 8.2799999999999909e+02
s[6,2,2] 0
s[7,0,4] 0
s[7,0,5] 1.1539999999999732e+03
s[7,0,6] 0
s[7,1,4] 8.8599999999997681e+02
s[7,1,5] 0
s[7,2,2] 0
s[7,2,3] 480
Z_FO 11769
